proyfinal/src/viki/013/andrea/andrea-localstore/experimentInOfficeAgust.take6/worker_2/a6006210-11e7-4711-9c43-6b2f896e5422.als.cnf.out
Reading from standard input... Use '--help' for help.
============================[ Problem Statistics ]=============================
|                                                                             |
|  Number of variables:         87638                                         |
|  Number of clauses:          161767                                         |
|  Parse time:                   0.04 s                                       |
|                                                                             |
============================[ Search Statistics ]==============================
| Conflicts |          ORIGINAL         |          LEARNT          | Progress |
|           |    Vars  Clauses Literals |    Limit  Clauses Lit/Cl |          |
===============================================================================
|       100 |   62347   105035   262430 |    38512      100     27 | 28.858 % |
|       250 |   62347   105035   262430 |    42364      250     26 | 28.858 % |
|       475 |   62347   105035   262430 |    46600      475     38 | 28.858 % |
|       812 |   62347   105035   262430 |    51260      812     45 | 28.858 % |
|      1318 |   62347   105035   262430 |    56386     1318     51 | 28.858 % |
|      2077 |   62347   105035   262430 |    62025     2077     54 | 28.858 % |
|      3216 |   62346   104991   262340 |    68227     3212     57 | 28.860 % |
|      4924 |   62346   104991   262340 |    75050     4920     68 | 28.860 % |
|      7486 |   62346   104991   262340 |    82555     7482     82 | 28.860 % |
|     11330 |   49546    67666   170929 |    90811    11195     94 | 43.465 % |
===============================================================================
restarts              : 61
conflicts             : 14288          (6909 /sec)
decisions             : 46366          (0.00 % random) (22420 /sec)
propagations          : 20815504       (10065242 /sec)
conflict literals     : 1168394        (47.42 % deleted)
Memory used           : 26.27 MB
CPU time              : 2.06806 s

UNSATISFIABLE
